c Result of efficient AIG-to-CNF conversion using package CNF
p cnf 368 1362
2 3 -101 0
2 3 -26 75 0
-2 -3 0
-2 26 101 0
-2 -75 101 0
-3 340 4 24 0
-3 -340 -4 -25 0
3 -4 25 0
3 -340 4 0
3 4 -24 0
3 340 -4 0
-4 341 342 5 0
4 -5 0
4 -342 0
4 -341 0
-5 343 6 0
5 -343 0
5 -6 0
-6 344 7 0
6 -344 0
6 -7 0
-7 345 346 8 0
7 -8 0
7 -346 0
7 -345 0
-8 347 9 0
8 -347 0
8 -9 0
-9 348 10 0
9 -348 0
9 -10 0
-10 349 350 11 0
10 -11 0
10 -350 0
10 -349 0
-11 351 12 0
11 -351 0
11 -12 0
-12 352 13 0
12 -352 0
12 -13 0
-13 353 14 0
13 -353 0
13 -14 0
-14 354 15 0
14 -354 0
14 -15 0
-15 355 16 0
15 -355 0
15 -16 0
-16 356 17 0
16 -356 0
16 -17 0
-17 357 358 359 18 0
17 -18 0
17 -359 0
17 -357 0
17 -358 0
-18 360 19 0
18 -360 0
18 -19 0
-19 361 20 0
19 -361 0
19 -20 0
-20 362 21 0
20 -362 0
20 -21 0
-21 363 22 0
21 -363 0
21 -22 0
-22 364 23 0
22 -364 0
22 -23 0
-23 365 366 367 0
23 -365 0
23 -367 0
23 -366 0
-24 336 337 338 339 0
24 -339 0
24 -338 0
24 -336 0
24 -337 0
25 -336 -337 -338 -339 0
-25 339 0
-25 336 0
-25 338 0
-25 337 0
26 27 28 47 -48 0
-26 -27 0
-26 48 0
-26 -47 0
-26 -28 0
27 -341 5 0
27 342 -5 0
27 341 -342 0
-27 -341 -342 -5 0
-27 341 342 5 0
-28 29 32 0
28 -29 0
28 -32 0
-29 30 31 0
29 -30 0
29 -31 0
30 -353 14 0
30 353 -14 0
-30 353 14 0
-30 -353 -14 0
-31 -351 -352 -13 0
-31 351 352 13 0
31 -351 13 0
31 352 -13 0
31 351 -352 0
-32 33 36 37 0
32 -33 0
32 -36 0
32 -37 0
-33 34 35 0
33 -34 0
33 -35 0
34 -348 10 0
34 348 -10 0
-34 348 10 0
-34 -348 -10 0
35 -349 11 0
35 350 -11 0
35 349 -350 0
-35 -349 -350 -11 0
-35 349 350 11 0
36 -354 15 0
36 354 -15 0
-36 354 15 0
-36 -354 -15 0
-37 38 41 0
37 -38 0
37 -41 0
-38 39 40 0
38 -39 0
38 -40 0
39 -355 16 0
39 355 -16 0
-39 355 16 0
-39 -355 -16 0
40 -356 17 0
40 356 -17 0
-40 356 17 0
-40 -356 -17 0
-41 42 43 0
41 -42 0
41 -43 0
42 -361 20 0
42 361 -20 0
-42 361 20 0
-42 -361 -20 0
-43 44 45 0
43 -44 0
43 -45 0
44 -360 19 0
44 360 -19 0
-44 360 19 0
-44 -360 -19 0
-45 362 21 46 0
-45 -362 -21 46 0
45 -46 0
45 362 -21 0
45 -362 21 0
46 358 -18 0
46 -357 18 0
46 -358 359 0
46 357 -359 0
-46 357 358 359 18 0
-46 -357 -358 -359 -18 0
-47 345 346 347 9 0
-47 -345 -346 -347 -9 0
47 346 -9 0
47 -345 9 0
47 -346 347 0
47 345 -347 0
48 49 -60 0
48 49 -50 -51 0
-48 -49 0
-48 50 60 0
-48 51 60 0
-49 -343 -344 -7 0
-49 343 344 7 0
49 -343 7 0
49 344 -7 0
49 343 -344 0
50 -363 22 0
50 363 -22 0
-50 363 22 0
-50 -363 -22 0
51 52 -53 0
-51 -52 0
-51 53 0
52 -364 23 0
52 364 -23 0
-52 364 23 0
-52 -364 -23 0
53 54 -56 0
-53 -54 0
-53 56 0
54 -365 55 0
54 365 -55 0
-54 365 55 0
-54 -365 -55 0
-55 366 367 0
55 -366 0
55 -367 0
56 57 -58 0
56 -57 -59 0
-56 -57 59 0
-56 57 58 0
57 366 -367 0
57 -366 367 0
-57 -366 -367 0
-57 366 367 0
58 -340 367 0
58 -339 -367 0
-58 340 367 0
-58 339 -367 0
59 -338 367 0
59 -337 -367 0
-59 338 367 0
-59 337 -367 0
60 50 52 -68 0
60 50 -52 -61 0
-60 -50 0
-60 -52 61 0
-60 52 68 0
61 54 -62 0
61 -54 -65 0
-61 -54 65 0
-61 54 62 0
62 57 -63 0
62 -57 -64 0
-62 -57 64 0
-62 57 63 0
63 -348 367 0
63 -347 -367 0
-63 348 367 0
-63 347 -367 0
64 -346 367 0
64 -345 -367 0
-64 346 367 0
-64 345 -367 0
65 57 -66 0
65 -57 -67 0
-65 -57 67 0
-65 57 66 0
66 -344 367 0
66 -343 -367 0
-66 344 367 0
-66 343 -367 0
67 -342 367 0
67 -341 -367 0
-67 342 367 0
-67 341 -367 0
68 54 -69 0
68 -54 -72 0
-68 -54 72 0
-68 54 69 0
69 57 -70 0
69 -57 -71 0
-69 -57 71 0
-69 57 70 0
70 -356 367 0
70 -355 -367 0
-70 356 367 0
-70 355 -367 0
71 -354 367 0
71 -353 -367 0
-71 354 367 0
-71 353 -367 0
72 57 -73 0
72 -57 -74 0
-72 -57 74 0
-72 57 73 0
73 -352 367 0
73 -351 -367 0
-73 352 367 0
-73 351 -367 0
74 -350 367 0
74 -349 -367 0
-74 350 367 0
-74 349 -367 0
75 76 79 -95 0
75 76 79 -80 0
-75 -76 0
-75 -79 0
-75 80 95 0
-76 77 78 0
76 -77 0
76 -78 0
77 -351 12 0
77 351 -12 0
-77 351 12 0
-77 -351 -12 0
-78 352 353 14 47 0
-78 -352 -353 -14 47 0
78 -352 14 0
78 353 -14 0
78 -47 0
78 352 -353 0
-79 32 49 0
79 -32 0
79 -49 0
80 50 52 -88 0
80 50 -52 -81 0
-80 -50 0
-80 -52 81 0
-80 52 88 0
81 54 -82 0
81 -54 -85 0
-81 -54 85 0
-81 54 82 0
82 57 -83 0
82 -57 -84 0
-82 -57 84 0
-82 57 83 0
83 -347 367 0
83 -346 -367 0
-83 347 367 0
-83 346 -367 0
84 -345 367 0
84 -344 -367 0
-84 345 367 0
-84 344 -367 0
85 57 -86 0
85 -57 -87 0
-85 -57 87 0
-85 57 86 0
86 -343 367 0
86 -342 -367 0
-86 343 367 0
-86 342 -367 0
87 -341 367 0
87 -340 -367 0
-87 341 367 0
-87 340 -367 0
88 54 -89 0
88 -54 -92 0
-88 -54 92 0
-88 54 89 0
89 57 -90 0
89 -57 -91 0
-89 -57 91 0
-89 57 90 0
90 -355 367 0
90 -354 -367 0
-90 355 367 0
-90 354 -367 0
91 -353 367 0
91 -352 -367 0
-91 353 367 0
-91 352 -367 0
92 57 -93 0
92 -57 -94 0
-92 -57 94 0
-92 57 93 0
93 -351 367 0
93 -350 -367 0
-93 351 367 0
-93 350 -367 0
94 -349 367 0
94 -348 -367 0
-94 349 367 0
-94 348 -367 0
95 -50 -96 0
-95 50 0
-95 96 0
96 52 -97 0
-96 -52 0
-96 97 0
97 54 -98 0
-97 -54 0
-97 98 0
-98 -57 100 0
-98 57 99 0
98 57 -99 0
98 -57 -100 0
99 -339 367 0
99 -338 -367 0
-99 339 367 0
-99 338 -367 0
-100 337 367 0
-100 336 -367 0
100 -337 367 0
100 -336 -367 0
101 27 -277 0
101 27 49 -102 0
-101 -27 0
-101 -49 277 0
-101 102 277 0
-102 104 231 0
-102 -103 231 0
102 -231 0
102 103 -104 0
103 -347 9 0
103 347 -9 0
-103 347 9 0
-103 -347 -9 0
-104 105 214 0
-104 105 -223 0
104 -105 0
104 -214 223 0
105 106 -107 0
105 106 198 -206 0
105 106 -198 206 0
-105 -106 0
-105 107 198 206 0
-105 107 -198 -206 0
106 -345 8 0
106 346 -8 0
106 345 -346 0
-106 -345 -346 -8 0
-106 345 346 8 0
-107 -108 -125 150 0
-107 108 125 150 0
107 -150 0
107 -108 125 0
107 108 -125 0
108 28 -109 0
108 28 -50 -119 0
-108 -28 0
-108 109 119 0
-108 50 109 0
109 50 -52 -115 0
109 50 52 -110 0
-109 -50 0
-109 -52 115 0
-109 52 110 0
-110 54 114 0
-110 111 114 0
110 -114 0
110 -54 -111 0
111 57 -112 0
111 -57 -113 0
-111 -57 113 0
-111 57 112 0
112 -363 367 0
112 -362 -367 0
-112 363 367 0
-112 362 -367 0
113 -361 367 0
113 -360 -367 0
-113 361 367 0
-113 360 -367 0
114 -365 -366 0
114 -364 -365 -367 0
-114 365 0
-114 366 367 0
-114 364 366 0
115 -54 -89 0
115 54 -116 0
-115 54 116 0
-115 -54 89 0
116 57 -117 0
116 -57 -118 0
-116 -57 118 0
-116 57 117 0
117 -359 367 0
117 -358 -367 0
-117 359 367 0
-117 358 -367 0
118 -357 367 0
118 -356 -367 0
-118 357 367 0
-118 356 -367 0
-119 120 122 0
-119 52 120 0
119 -120 0
119 -52 -122 0
120 52 -121 0
-120 -52 0
-120 121 0
121 -54 -82 0
121 54 -92 0
-121 54 92 0
-121 -54 82 0
-122 123 124 0
-122 54 123 0
122 -123 0
122 -54 -124 0
123 54 -85 0
-123 -54 0
-123 85 0
-124 57 99 0
-124 337 -57 0
-124 -367 -57 0
124 57 -99 0
124 -337 367 -57 0
125 35 37 -126 147 0
-125 -37 0
-125 126 0
-125 -35 0
-125 -147 0
-126 50 127 0
-126 -50 137 0
126 -50 -137 0
126 50 -127 0
-127 52 128 0
-127 -52 133 0
127 -52 -133 0
127 52 -128 0
-128 54 129 0
-128 -54 130 0
128 -54 -130 0
128 54 -129 0
-129 364 367 0
-129 363 366 0
-129 366 367 0
129 -364 -366 0
129 -363 -367 0
129 -366 -367 0
130 57 -131 0
130 -57 -132 0
-130 -57 132 0
-130 57 131 0
131 -362 367 0
131 -361 -367 0
-131 362 367 0
-131 361 -367 0
132 -360 367 0
132 -359 -367 0
-132 360 367 0
-132 359 -367 0
133 54 -134 0
133 -54 -136 0
-133 -54 136 0
-133 54 134 0
134 -57 -70 0
134 57 -135 0
-134 57 135 0
-134 -57 70 0
135 -358 367 0
135 -357 -367 0
-135 358 367 0
-135 357 -367 0
136 57 -71 0
136 -57 -73 0
-136 -57 73 0
-136 57 71 0
-137 138 142 0
-137 52 138 0
137 -138 0
137 -52 -142 0
138 52 -139 0
-138 -52 0
-138 139 0
139 54 -140 0
139 -54 -141 0
-139 -54 141 0
-139 54 140 0
140 -57 -63 0
140 57 -74 0
-140 57 74 0
-140 -57 63 0
141 57 -64 0
141 -57 -66 0
-141 -57 66 0
-141 57 64 0
-142 143 145 0
-142 54 143 0
142 -143 0
142 -54 -145 0
143 54 -144 0
-143 -54 0
-143 144 0
144 -57 -58 0
144 57 -67 0
-144 57 67 0
-144 -57 58 0
-145 57 146 0
-145 -367 146 0
-145 336 146 0
145 -146 0
145 -336 367 -57 0
146 -337 -367 57 0
146 -338 367 57 0
-146 -57 0
-146 338 367 0
-146 337 -367 0
-147 148 149 0
147 -148 0
147 -149 0
-148 30 36 0
148 -30 0
148 -36 0
-149 31 34 0
149 -31 0
149 -34 0
150 28 -50 -171 0
150 28 50 -151 0
-150 -28 0
-150 -50 171 0
-150 50 151 0
-151 -127 -152 -160 165 0
-151 127 152 160 165 0
151 152 -160 0
151 -127 160 0
151 -165 0
151 127 -152 0
-152 -52 157 0
-152 52 153 155 0
152 52 -153 0
152 -52 -157 0
152 52 -155 0
153 -112 -154 0
153 57 -154 0
-153 154 0
-153 -57 112 0
154 -364 -365 -367 0
154 -365 -366 367 0
154 -365 366 -367 0
-154 365 0
-154 366 367 0
-154 364 -366 -367 0
155 -54 -156 0
-155 54 0
-155 156 0
156 57 -113 0
156 -57 -117 0
-156 -57 117 0
-156 57 113 0
157 54 -158 0
157 -54 -159 0
-157 -54 159 0
-157 54 158 0
158 -57 -90 0
158 57 -118 0
-158 57 118 0
-158 -57 90 0
159 57 -91 0
159 -57 -93 0
-159 -57 93 0
-159 57 91 0
-160 -52 68 0
-160 52 161 0
160 -52 -68 0
160 52 -161 0
-161 54 163 0
-161 -54 162 0
161 -54 -162 0
161 54 -163 0
162 57 -132 0
162 -57 -135 0
-162 -57 135 0
-162 57 132 0
163 57 -164 0
163 -57 -131 0
-163 -57 131 0
-163 57 164 0
164 -364 367 0
164 -363 -367 0
-164 364 367 0
-164 363 -367 0
165 -166 169 0
165 166 -169 0
-165 166 169 0
-165 -166 -169 0
-166 52 167 0
-166 -52 168 0
166 -52 -168 0
166 52 -167 0
-167 -54 134 0
-167 54 130 0
167 54 -130 0
167 -54 -134 0
168 54 -136 0
168 -54 -140 0
-168 -54 140 0
-168 54 136 0
-169 -52 88 0
-169 52 170 0
169 -52 -88 0
169 52 -170 0
-170 -54 116 0
-170 54 111 0
170 54 -111 0
170 -54 -116 0
-171 172 -191 -194 0
-171 172 191 194 0
171 -172 0
171 191 -194 0
171 -191 194 0
-172 -173 -182 186 188 0
-172 173 182 186 188 0
-172 -173 -182 -186 -188 0
-172 173 182 -186 -188 0
172 -173 182 0
172 173 -182 0
172 -186 188 0
172 186 -188 0
-173 174 178 0
-173 52 174 0
173 -174 0
173 -52 -178 0
174 52 -175 0
-174 -52 0
-174 175 0
175 54 -176 0
175 -54 -177 0
-175 -54 177 0
-175 54 176 0
176 -57 -83 0
176 57 -94 0
-176 57 94 0
-176 -57 83 0
177 57 -84 0
177 -57 -86 0
-177 -57 86 0
-177 57 84 0
-178 179 180 0
-178 -57 180 0
-178 54 180 0
178 -180 0
178 -54 57 -179 0
179 -337 367 0
-179 337 0
-179 -367 0
180 54 -181 0
-180 -54 0
-180 181 0
181 57 -87 0
181 -57 -99 0
-181 -57 99 0
-181 57 87 0
-182 183 184 0
-182 52 183 0
182 -183 0
182 -52 -184 0
183 52 -61 0
-183 -52 0
-183 61 0
-184 53 185 0
-184 54 53 0
184 -53 0
184 -54 -185 0
185 -336 367 57 0
-185 336 0
-185 -57 0
-185 -367 0
-186 138 187 0
-186 52 138 0
186 -138 0
186 -52 -187 0
-187 143 146 0
-187 54 143 0
187 -143 0
187 -54 -146 0
-188 174 189 0
-188 52 174 0
188 -174 0
188 -52 -189 0
-189 180 190 0
-189 54 180 0
189 -180 0
189 -54 -190 0
190 -336 -367 57 0
190 -337 367 57 0
-190 -57 0
-190 337 367 0
-190 336 -367 0
-191 192 193 0
-191 52 192 0
191 -192 0
191 -52 -193 0
192 52 -81 0
-192 -52 0
-192 81 0
193 54 -124 0
-193 -54 0
-193 124 0
-194 195 197 0
-194 52 195 0
194 -195 0
194 -52 -197 0
195 52 -196 0
-195 -52 0
-195 196 0
196 54 -141 0
196 -54 -144 0
-196 -54 144 0
-196 54 141 0
197 54 -145 0
-197 -54 0
-197 145 0
198 199 202 -203 0
-198 -199 0
-198 -202 0
-198 203 0
-199 33 200 0
199 -33 0
199 -200 0
-200 40 201 0
200 -40 0
200 -201 0
-201 36 39 0
201 -36 0
201 -39 0
-202 29 41 0
202 -29 0
202 -41 0
-203 109 204 0
-203 50 109 0
203 -109 0
203 -50 -204 0
-204 120 205 0
-204 52 120 0
204 -120 0
204 -52 -205 0
-205 98 123 0
-205 54 123 0
205 -123 0
205 -54 -98 0
206 28 -50 -211 0
206 28 50 -207 0
-206 -28 0
-206 -50 211 0
-206 50 207 0
207 52 -208 0
207 -52 -210 0
207 52 -209 0
-207 -52 210 0
-207 52 208 209 0
208 -365 -366 0
208 -365 -367 0
-208 365 0
-208 366 367 0
209 -54 -163 0
-209 54 0
-209 163 0
210 -54 -69 0
210 54 -162 0
-210 54 162 0
-210 -54 69 0
211 52 -212 0
211 -52 -213 0
-211 -52 213 0
-211 52 212 0
212 -54 -62 0
212 54 -72 0
-212 54 72 0
-212 -54 62 0
213 -54 -56 0
213 54 -65 0
-213 54 65 0
-213 -54 56 0
214 29 39 215 -216 0
-214 216 0
-214 -29 0
-214 -215 0
-214 -39 0
-215 33 45 0
215 -33 0
215 -45 0
216 44 106 217 -219 0
-216 -44 0
-216 219 0
-216 -217 0
-216 -106 0
-217 36 218 0
217 -36 0
217 -218 0
-218 40 42 0
218 -40 0
218 -42 0
-219 220 221 0
-219 50 220 0
219 -220 0
219 -50 -221 0
220 50 -211 0
-220 -50 0
-220 211 0
221 52 -222 0
-221 -52 0
-221 222 0
222 -336 367 54 57 0
-222 -57 0
-222 -54 0
-222 336 0
-222 -367 0
223 44 76 201 -224 0
-223 -44 0
-223 224 0
-223 -201 0
-223 -76 0
224 215 218 -228 0
224 215 218 -225 0
-224 -215 0
-224 -218 0
-224 225 228 0
225 50 52 -227 0
225 50 -52 -226 0
-225 -50 0
-225 -52 226 0
-225 52 227 0
226 54 -177 0
226 -54 -181 0
-226 -54 181 0
-226 54 177 0
227 54 -159 0
227 -54 -176 0
-227 -54 176 0
-227 54 159 0
228 -50 -229 0
-228 50 0
-228 229 0
229 52 -230 0
-229 -52 0
-229 230 0
230 -337 367 54 57 0
-230 -57 0
-230 -54 0
-230 337 0
-230 -367 0
-231 232 237 241 267 0
-231 -232 -237 241 267 0
231 -241 0
231 232 -237 0
231 -267 0
231 -232 237 0
232 199 233 -235 0
232 199 233 -234 0
-232 -199 0
-232 -233 0
-232 234 235 0
-233 47 202 0
233 -47 0
233 -202 0
234 50 -52 -175 0
234 50 52 -157 0
-234 -50 0
-234 -52 175 0
-234 52 157 0
235 -50 -236 0
-235 50 0
-235 236 0
236 52 -178 0
-236 -52 0
-236 178 0
237 36 37 78 -238 0
-237 -36 0
-237 238 0
-237 -78 0
-237 -37 0
238 -60 240 0
238 -50 -239 240 0
-238 -240 0
-238 60 239 0
-238 50 60 0
239 52 -184 0
-239 -52 0
-239 184 0
-240 77 33 0
240 -77 0
240 -33 0
241 35 -242 0
241 35 47 -257 0
-241 -35 0
-241 242 257 0
-241 -47 242 0
242 243 -245 0
242 243 -252 255 0
242 243 252 -255 0
-242 -243 0
-242 245 -252 -255 0
-242 245 252 255 0
-243 147 244 0
243 -147 0
243 -244 0
-244 37 47 0
244 -37 0
244 -47 0
245 -246 249 0
245 246 -249 0
-245 246 249 0
-245 -246 -249 0
-246 50 248 0
-246 247 248 0
246 -248 0
246 -50 -247 0
247 52 -122 0
-247 -52 0
-247 122 0
248 50 -52 -121 0
248 50 52 -115 0
-248 -50 0
-248 -52 121 0
-248 52 115 0
-249 250 251 0
-249 50 250 0
249 -250 0
249 -50 -251 0
250 50 -52 -139 0
250 50 52 -133 0
-250 -50 0
-250 -52 139 0
-250 52 133 0
251 52 -142 0
-251 -52 0
-251 142 0
-252 253 254 0
-252 50 253 0
252 -253 0
252 -50 -254 0
253 50 -52 -212 0
253 50 52 -210 0
-253 -50 0
-253 -52 212 0
-253 52 210 0
254 52 -213 0
-254 -52 0
-254 213 0
-255 248 256 0
-255 50 248 0
255 -248 0
255 -50 -256 0
256 52 -205 0
-256 -52 0
-256 205 0
257 39 217 258 -259 0
-257 -39 0
-257 259 0
-257 -258 0
-257 -217 0
-258 29 34 0
258 -29 0
258 -34 0
259 43 -260 264 0
259 43 260 -264 0
-259 -43 0
-259 260 264 0
-259 -260 -264 0
-260 261 262 0
-260 50 261 0
260 -261 0
260 -50 -262 0
261 50 -52 -196 0
261 50 52 -168 0
-261 -50 0
-261 -52 196 0
-261 52 168 0
262 52 -263 0
-262 -52 0
-262 263 0
263 54 -146 0
-263 -54 0
-263 146 0
-264 225 265 0
-264 50 225 0
264 -225 0
264 -50 -265 0
265 52 -266 0
-265 -52 0
-265 266 0
266 54 -190 0
-266 -54 0
-266 190 0
-267 -214 268 0
-267 223 268 0
267 -268 0
267 214 -223 0
268 50 -269 273 0
268 -269 273 -274 0
-268 -273 0
-268 269 0
-268 -50 274 0
269 -50 270 0
269 160 -169 270 0
269 -160 169 270 0
-269 -270 0
-269 50 -160 -169 0
-269 50 160 169 0
-270 35 271 272 0
270 -272 0
270 -271 0
270 -35 0
-271 38 148 0
271 -38 0
271 -148 0
-272 31 41 0
272 -31 0
272 -41 0
-273 34 47 0
273 -34 0
273 -47 0
-274 275 276 0
-274 -275 -276 0
274 -275 276 0
274 275 -276 0
-275 52 183 0
-275 53 183 0
275 -183 0
275 -52 -53 0
-276 52 192 0
-276 97 192 0
276 -192 0
276 -52 -97 0
-277 278 286 312 0
-277 -282 286 312 0
277 -312 0
277 -286 0
277 -278 282 0
278 31 49 244 -279 0
-278 279 0
-278 -31 0
-278 -244 0
-278 -49 0
279 33 148 -280 0
279 33 148 -250 0
-279 -33 0
-279 -148 0
-279 250 280 0
280 -50 -281 0
-280 50 0
-280 281 0
281 52 -187 0
-281 -52 0
-281 187 0
282 -234 284 0
282 -50 -283 284 0
-282 -284 0
-282 234 283 0
-282 50 234 0
283 52 -189 0
-283 -52 0
-283 189 0
-284 243 285 0
284 -243 0
284 -285 0
-285 35 49 0
285 -35 0
285 -49 0
-286 287 297 303 0
-286 -291 297 303 0
286 -303 0
286 -297 0
286 -287 291 0
287 41 47 285 -288 0
-287 288 0
-287 -41 0
-287 -285 0
-287 -47 0
288 149 271 -289 0
288 149 -253 271 0
-288 -149 0
-288 -271 0
-288 253 289 0
289 -50 -290 0
-289 50 0
-289 290 0
-290 52 254 0
-290 222 254 0
290 -254 0
290 -52 -222 0
291 49 271 272 -292 0
-291 292 0
-291 -49 0
-291 -272 0
-291 -271 0
292 33 -293 0
292 33 -50 -295 0
-292 -33 0
-292 293 295 0
-292 50 293 0
293 50 -52 -227 0
293 50 52 -294 0
-293 -50 0
-293 -52 227 0
-293 52 294 0
-294 -54 158 0
-294 54 156 0
294 54 -156 0
294 -54 -158 0
-295 52 296 0
-295 230 296 0
295 -296 0
295 -52 -230 0
296 52 -226 0
-296 -52 0
-296 226 0
297 47 -298 0
297 47 287 -291 0
-297 -47 0
-297 -287 298 0
-297 291 298 0
298 28 49 -299 301 0
298 28 49 299 -301 0
-298 -49 0
-298 -299 -301 0
-298 -28 0
-298 299 301 0
-299 293 300 0
-299 50 293 0
299 -293 0
299 -50 -300 0
-300 52 296 0
-300 266 296 0
300 -296 0
300 -52 -266 0
-301 50 166 0
-301 -50 302 0
301 -50 -302 0
301 50 -166 0
-302 195 263 0
-302 52 195 0
302 -195 0
302 -52 -263 0
-303 304 305 0
-303 304 306 -308 0
303 -304 0
303 -305 -306 0
303 -305 308 0
304 26 -75 0
-304 -26 0
-304 75 0
305 76 79 -220 0
-305 -76 0
-305 -79 0
-305 220 0
-306 307 273 0
306 -307 0
306 -273 0
307 -343 6 0
307 343 -6 0
-307 343 6 0
-307 -343 -6 0
308 -204 309 0
-308 204 0
-308 -309 0
-309 35 310 202 311 0
309 -35 0
309 -311 0
309 -202 0
309 -310 0
310 -344 7 0
310 344 -7 0
-310 344 7 0
-310 -344 -7 0
-311 50 200 0
311 -50 0
311 -200 0
-312 313 325 0
-312 -306 325 0
312 -325 0
312 306 -313 0
-313 -309 0
-313 -305 314 0
-313 204 314 0
313 309 -314 0
313 -204 305 309 0
-314 171 315 321 323 0
314 -323 0
314 -171 0
314 -321 0
314 -315 0
-315 254 256 316 320 0
-315 -254 -256 316 320 0
315 -320 0
315 -254 256 0
315 -316 0
315 254 -256 0
-316 -317 -318 319 0
-316 317 318 319 0
316 -319 0
316 -317 318 0
316 317 -318 0
317 52 -193 0
-317 -52 0
-317 193 0
318 52 -197 0
-318 -52 0
-318 197 0
-319 239 262 265 0
-319 -236 -262 -265 0
-319 -236 262 265 0
-319 239 -262 -265 0
319 262 -265 0
319 -262 265 0
319 236 -239 0
-320 251 281 283 0
-320 -247 -281 -283 0
-320 -247 281 283 0
-320 251 -281 -283 0
320 281 -283 0
320 -281 283 0
320 247 -251 0
-321 236 274 322 0
-321 -239 274 322 0
321 -322 0
321 -274 0
321 -236 239 0
-322 -51 -96 -251 0
-322 51 96 247 0
-322 51 96 -251 0
-322 -51 -96 247 0
322 51 -96 0
322 -51 96 0
322 -247 251 0
-323 300 302 324 0
-323 -300 -302 324 0
323 -324 0
323 300 -302 0
323 -300 302 0
-324 -119 -137 290 295 0
-324 119 137 290 295 0
-324 -119 -137 -290 -295 0
-324 119 137 -290 -295 0
324 -119 137 0
324 119 -137 0
324 -290 295 0
324 290 -295 0
-325 326 327 329 331 0
-325 326 -327 -329 331 0
325 -331 0
325 -327 329 0
325 -326 0
325 327 -329 0
326 278 -282 0
-326 -278 0
-326 282 0
327 36 258 285 -328 0
-327 -36 0
-327 328 0
-327 -285 0
-327 -258 0
328 -80 244 0
328 -50 244 -317 0
-328 -244 0
-328 80 317 0
-328 50 80 0
329 76 79 -330 0
329 76 79 -261 0
-329 -76 0
-329 -79 0
-329 261 330 0
330 -50 -318 0
-330 50 0
-330 318 0
-331 -332 -334 0
-331 332 334 0
331 332 -334 0
331 -332 334 0
332 202 285 311 -333 0
-332 333 0
-332 -202 0
-332 -311 0
-332 -285 0
333 -221 273 0
-333 221 0
-333 -273 0
334 33 49 311 -335 0
-334 335 0
-334 -33 0
-334 -311 0
-334 -49 0
335 -229 233 0
-335 229 0
-335 -233 0
-368 0
2 0

